NAME          
ROWS
 N  OBJ
 L  c1
COLUMNS
    MARKER    'MARKER'                 'INTORG'
    x[1]      c1        620
    x[1]      OBJ       -539
    x[2]      c1        946
    x[2]      OBJ       -897
    x[3]      c1        190
    x[3]      OBJ       -259
    x[4]      c1        354
    x[4]      OBJ       -339
    x[5]      c1        416
    x[5]      OBJ       -425
RHS
    rhs       c1        1263
RANGES
BOUNDS
 BV bounds    x[1]
 BV bounds    x[2]
 BV bounds    x[3]
 BV bounds    x[4]
 BV bounds    x[5]
ENDATA
